50 8
570 668
219 926
477 442
928 954
560 744
469 419
667 288
294 64
234 255
709 274
826 830
318 682
229 905
892 787
174 517
89 736
878 835
626 994
441 725
617 898
470 955
743 276
845 909
579 839
59 640
592 607
541 475
332 144
750 851
647 267
602 568
152 113
911 585
181 664
719 144
623 670
136 700
128 653
581 547
620 918
676 519
506 592
913 738
227 102
226 546
189 157
787 679
649 668
862 378
753 916
